c Mesh Graph
c 100 Rows, 10 columns, capacities in range [0, 100]
p max 1002 2900
n 1 s
n 1002 t
a 1 101 300
a 1 100 300
a 1 99 300
a 1 98 300
a 1 97 300
a 1 96 300
a 1 95 300
a 1 94 300
a 1 93 300
a 1 92 300
a 1 91 300
a 1 90 300
a 1 89 300
a 1 88 300
a 1 87 300
a 1 86 300
a 1 85 300
a 1 84 300
a 1 83 300
a 1 82 300
a 1 81 300
a 1 80 300
a 1 79 300
a 1 78 300
a 1 77 300
a 1 76 300
a 1 75 300
a 1 74 300
a 1 73 300
a 1 72 300
a 1 71 300
a 1 70 300
a 1 69 300
a 1 68 300
a 1 67 300
a 1 66 300
a 1 65 300
a 1 64 300
a 1 63 300
a 1 62 300
a 1 61 300
a 1 60 300
a 1 59 300
a 1 58 300
a 1 57 300
a 1 56 300
a 1 55 300
a 1 54 300
a 1 53 300
a 1 52 300
a 1 51 300
a 1 50 300
a 1 49 300
a 1 48 300
a 1 47 300
a 1 46 300
a 1 45 300
a 1 44 300
a 1 43 300
a 1 42 300
a 1 41 300
a 1 40 300
a 1 39 300
a 1 38 300
a 1 37 300
a 1 36 300
a 1 35 300
a 1 34 300
a 1 33 300
a 1 32 300
a 1 31 300
a 1 30 300
a 1 29 300
a 1 28 300
a 1 27 300
a 1 26 300
a 1 25 300
a 1 24 300
a 1 23 300
a 1 22 300
a 1 21 300
a 1 20 300
a 1 19 300
a 1 18 300
a 1 17 300
a 1 16 300
a 1 15 300
a 1 14 300
a 1 13 300
a 1 12 300
a 1 11 300
a 1 10 300
a 1 9 300
a 1 8 300
a 1 7 300
a 1 6 300
a 1 5 300
a 1 4 300
a 1 3 300
a 1 2 300
a 2 103 78
a 2 102 87
a 2 201 84
a 3 104 36
a 3 103 94
a 3 102 16
a 4 105 50
a 4 104 93
a 4 103 87
a 5 106 28
a 5 105 63
a 5 104 22
a 6 107 64
a 6 106 60
a 6 105 91
a 7 108 27
a 7 107 41
a 7 106 27
a 8 109 12
a 8 108 37
a 8 107 73
a 9 110 30
a 9 109 68
a 9 108 69
a 10 111 63
a 10 110 31
a 10 109 83
a 11 112 36
a 11 111 68
a 11 110 24
a 12 113 23
a 12 112 3
a 12 111 30
a 13 114 68
a 13 113 70
a 13 112 59
a 14 115 12
a 14 114 57
a 14 113 94
a 15 116 74
a 15 115 30
a 15 114 43
a 16 117 85
a 16 116 20
a 16 115 22
a 17 118 25
a 17 117 99
a 17 116 38
a 18 119 14
a 18 118 71
a 18 117 16
a 19 120 81
a 19 119 92
a 19 118 27
a 20 121 63
a 20 120 74
a 20 119 57
a 21 122 82
a 21 121 97
a 21 120 71
a 22 123 85
a 22 122 26
a 22 121 6
a 23 124 6
a 23 123 37
a 23 122 28
a 24 125 14
a 24 124 30
a 24 123 47
a 25 126 96
a 25 125 25
a 25 124 58
a 26 127 15
a 26 126 46
a 26 125 83
a 27 128 65
a 27 127 35
a 27 126 68
a 28 129 88
a 28 128 51
a 28 127 44
a 29 130 79
a 29 129 77
a 29 128 9
a 30 131 4
a 30 130 85
a 30 129 89
a 31 132 100
a 31 131 55
a 31 130 52
a 32 133 77
a 32 132 61
a 32 131 33
a 33 134 13
a 33 133 40
a 33 132 69
a 34 135 95
a 34 134 87
a 34 133 27
a 35 136 71
a 35 135 96
a 35 134 40
a 36 137 68
a 36 136 79
a 36 135 35
a 37 138 3
a 37 137 98
a 37 136 2
a 38 139 53
a 38 138 93
a 38 137 18
a 39 140 81
a 39 139 2
a 39 138 57
a 40 141 66
a 40 140 42
a 40 139 87
a 41 142 20
a 41 141 45
a 41 140 90
a 42 143 32
a 42 142 30
a 42 141 41
a 43 144 72
a 43 143 98
a 43 142 18
a 44 145 10
a 44 144 76
a 44 143 82
a 45 146 57
a 45 145 68
a 45 144 28
a 46 147 87
a 46 146 54
a 46 145 98
a 47 148 84
a 47 147 7
a 47 146 66
a 48 149 29
a 48 148 25
a 48 147 20
a 49 150 30
a 49 149 33
a 49 148 72
a 50 151 71
a 50 150 20
a 50 149 4
a 51 152 16
a 51 151 9
a 51 150 69
a 52 153 97
a 52 152 50
a 52 151 41
a 53 154 46
a 53 153 19
a 53 152 24
a 54 155 22
a 54 154 52
a 54 153 47
a 55 156 89
a 55 155 80
a 55 154 56
a 56 157 42
a 56 156 29
a 56 155 65
a 57 158 1
a 57 157 94
a 57 156 51
a 58 159 25
a 58 158 65
a 58 157 35
a 59 160 57
a 59 159 88
a 59 158 15
a 60 161 28
a 60 160 92
a 60 159 44
a 61 162 37
a 61 161 60
a 61 160 66
a 62 163 38
a 62 162 52
a 62 161 33
a 63 164 8
a 63 163 76
a 63 162 29
a 64 165 59
a 64 164 22
a 64 163 75
a 65 166 38
a 65 165 30
a 65 164 96
a 66 167 19
a 66 166 94
a 66 165 36
a 67 168 12
a 67 167 44
a 67 166 29
a 68 169 77
a 68 168 30
a 68 167 29
a 69 170 64
a 69 169 44
a 69 168 5
a 70 171 7
a 70 170 39
a 70 169 14
a 71 172 19
a 71 171 5
a 71 170 41
a 72 173 70
a 72 172 89
a 72 171 29
a 73 174 97
a 73 173 18
a 73 172 18
a 74 175 71
a 74 174 44
a 74 173 25
a 75 176 100
a 75 175 91
a 75 174 84
a 76 177 45
a 76 176 26
a 76 175 73
a 77 178 40
a 77 177 6
a 77 176 91
a 78 179 70
a 78 178 87
a 78 177 55
a 79 180 65
a 79 179 43
a 79 178 83
a 80 181 56
a 80 180 8
a 80 179 98
a 81 182 12
a 81 181 49
a 81 180 5
a 82 183 100
a 82 182 29
a 82 181 23
a 83 184 69
a 83 183 47
a 83 182 44
a 84 185 12
a 84 184 23
a 84 183 41
a 85 186 2
a 85 185 6
a 85 184 11
a 86 187 79
a 86 186 31
a 86 185 62
a 87 188 37
a 87 187 21
a 87 186 6
a 88 189 23
a 88 188 27
a 88 187 45
a 89 190 17
a 89 189 9
a 89 188 66
a 90 191 25
a 90 190 59
a 90 189 83
a 91 192 25
a 91 191 63
a 91 190 38
a 92 193 53
a 92 192 37
a 92 191 1
a 93 194 51
a 93 193 80
a 93 192 100
a 94 195 74
a 94 194 72
a 94 193 69
a 95 196 31
a 95 195 82
a 95 194 32
a 96 197 61
a 96 196 95
a 96 195 34
a 97 198 82
a 97 197 100
a 97 196 64
a 98 199 60
a 98 198 97
a 98 197 100
a 99 200 69
a 99 199 14
a 99 198 74
a 100 201 27
a 100 200 96
a 100 199 91
a 101 102 41
a 101 201 85
a 101 200 67
a 102 203 77
a 102 202 85
a 102 301 91
a 103 204 8
a 103 203 37
a 103 202 43
a 104 205 80
a 104 204 57
a 104 203 46
a 105 206 13
a 105 205 88
a 105 204 19
a 106 207 60
a 106 206 73
a 106 205 49
a 107 208 11
a 107 207 37
a 107 206 10
a 108 209 7
a 108 208 88
a 108 207 43
a 109 210 73
a 109 209 14
a 109 208 2
a 110 211 20
a 110 210 56
a 110 209 22
a 111 212 5
a 111 211 22
a 111 210 100
a 112 213 41
a 112 212 12
a 112 211 40
a 113 214 29
a 113 213 6
a 113 212 68
a 114 215 85
a 114 214 51
a 114 213 28
a 115 216 25
a 115 215 21
a 115 214 59
a 116 217 97
a 116 216 70
a 116 215 23
a 117 218 85
a 117 217 31
a 117 216 82
a 118 219 73
a 118 218 73
a 118 217 93
a 119 220 86
a 119 219 26
a 119 218 51
a 120 221 41
a 120 220 100
a 120 219 23
a 121 222 14
a 121 221 99
a 121 220 43
a 122 223 25
a 122 222 91
a 122 221 99
a 123 224 82
a 123 223 10
a 123 222 91
a 124 225 33
a 124 224 37
a 124 223 20
a 125 226 5
a 125 225 95
a 125 224 56
a 126 227 74
a 126 226 70
a 126 225 80
a 127 228 56
a 127 227 51
a 127 226 77
a 128 229 80
a 128 228 43
a 128 227 61
a 129 230 6
a 129 229 94
a 129 228 85
a 130 231 5
a 130 230 68
a 130 229 22
a 131 232 55
a 131 231 62
a 131 230 14
a 132 233 45
a 132 232 60
a 132 231 27
a 133 234 7
a 133 233 3
a 133 232 3
a 134 235 43
a 134 234 22
a 134 233 85
a 135 236 90
a 135 235 29
a 135 234 69
a 136 237 59
a 136 236 9
a 136 235 73
a 137 238 9
a 137 237 37
a 137 236 99
a 138 239 4
a 138 238 49
a 138 237 54
a 139 240 49
a 139 239 34
a 139 238 34
a 140 241 68
a 140 240 55
a 140 239 91
a 141 242 30
a 141 241 69
a 141 240 47
a 142 243 89
a 142 242 47
a 142 241 1
a 143 244 91
a 143 243 50
a 143 242 98
a 144 245 64
a 144 244 34
a 144 243 4
a 145 246 93
a 145 245 54
a 145 244 98
a 146 247 53
a 146 246 26
a 146 245 87
a 147 248 89
a 147 247 76
a 147 246 97
a 148 249 37
a 148 248 30
a 148 247 58
a 149 250 22
a 149 249 15
a 149 248 61
a 150 251 29
a 150 250 5
a 150 249 61
a 151 252 49
a 151 251 51
a 151 250 28
a 152 253 95
a 152 252 3
a 152 251 57
a 153 254 44
a 153 253 100
a 153 252 98
a 154 255 29
a 154 254 3
a 154 253 40
a 155 256 82
a 155 255 1
a 155 254 4
a 156 257 60
a 156 256 39
a 156 255 48
a 157 258 35
a 157 257 36
a 157 256 52
a 158 259 16
a 158 258 93
a 158 257 40
a 159 260 30
a 159 259 5
a 159 258 28
a 160 261 86
a 160 260 65
a 160 259 50
a 161 262 36
a 161 261 44
a 161 260 30
a 162 263 39
a 162 262 1
a 162 261 78
a 163 264 90
a 163 263 50
a 163 262 72
a 164 265 93
a 164 264 89
a 164 263 68
a 165 266 45
a 165 265 44
a 165 264 96
a 166 267 83
a 166 266 91
a 166 265 30
a 167 268 70
a 167 267 42
a 167 266 41
a 168 269 62
a 168 268 33
a 168 267 27
a 169 270 18
a 169 269 61
a 169 268 43
a 170 271 82
a 170 270 62
a 170 269 24
a 171 272 26
a 171 271 91
a 171 270 10
a 172 273 78
a 172 272 68
a 172 271 97
a 173 274 27
a 173 273 91
a 173 272 35
a 174 275 15
a 174 274 58
a 174 273 25
a 175 276 59
a 175 275 6
a 175 274 69
a 176 277 1
a 176 276 87
a 176 275 13
a 177 278 95
a 177 277 27
a 177 276 47
a 178 279 79
a 178 278 53
a 178 277 17
a 179 280 91
a 179 279 47
a 179 278 30
a 180 281 52
a 180 280 71
a 180 279 48
a 181 282 94
a 181 281 32
a 181 280 81
a 182 283 13
a 182 282 28
a 182 281 58
a 183 284 56
a 183 283 15
a 183 282 87
a 184 285 13
a 184 284 91
a 184 283 13
a 185 286 70
a 185 285 11
a 185 284 80
a 186 287 56
a 186 286 75
a 186 285 90
a 187 288 34
a 187 287 21
a 187 286 42
a 188 289 39
a 188 288 89
a 188 287 88
a 189 290 85
a 189 289 71
a 189 288 67
a 190 291 7
a 190 290 18
a 190 289 57
a 191 292 38
a 191 291 50
a 191 290 61
a 192 293 18
a 192 292 60
a 192 291 6
a 193 294 84
a 193 293 46
a 193 292 19
a 194 295 74
a 194 294 59
a 194 293 74
a 195 296 84
a 195 295 90
a 195 294 38
a 196 297 58
a 196 296 79
a 196 295 8
a 197 298 30
a 197 297 72
a 197 296 15
a 198 299 19
a 198 298 60
a 198 297 1
a 199 300 89
a 199 299 26
a 199 298 39
a 200 301 58
a 200 300 34
a 200 299 75
a 201 202 59
a 201 301 94
a 201 300 82
a 202 303 18
a 202 302 100
a 202 401 71
a 203 304 64
a 203 303 70
a 203 302 40
a 204 305 74
a 204 304 95
a 204 303 23
a 205 306 63
a 205 305 32
a 205 304 48
a 206 307 93
a 206 306 91
a 206 305 83
a 207 308 16
a 207 307 58
a 207 306 92
a 208 309 75
a 208 308 58
a 208 307 22
a 209 310 52
a 209 309 48
a 209 308 92
a 210 311 38
a 210 310 22
a 210 309 32
a 211 312 31
a 211 311 55
a 211 310 41
a 212 313 82
a 212 312 26
a 212 311 99
a 213 314 3
a 213 313 17
a 213 312 17
a 214 315 97
a 214 314 40
a 214 313 32
a 215 316 81
a 215 315 39
a 215 314 5
a 216 317 71
a 216 316 22
a 216 315 19
a 217 318 80
a 217 317 13
a 217 316 63
a 218 319 37
a 218 318 86
a 218 317 78
a 219 320 84
a 219 319 77
a 219 318 5
a 220 321 58
a 220 320 60
a 220 319 8
a 221 322 12
a 221 321 100
a 221 320 45
a 222 323 37
a 222 322 51
a 222 321 28
a 223 324 6
a 223 323 19
a 223 322 61
a 224 325 45
a 224 324 50
a 224 323 64
a 225 326 35
a 225 325 6
a 225 324 12
a 226 327 56
a 226 326 76
a 226 325 92
a 227 328 69
a 227 327 90
a 227 326 15
a 228 329 6
a 228 328 19
a 228 327 94
a 229 330 83
a 229 329 23
a 229 328 83
a 230 331 94
a 230 330 31
a 230 329 18
a 231 332 94
a 231 331 27
a 231 330 75
a 232 333 44
a 232 332 54
a 232 331 87
a 233 334 14
a 233 333 15
a 233 332 75
a 234 335 63
a 234 334 78
a 234 333 80
a 235 336 20
a 235 335 89
a 235 334 76
a 236 337 95
a 236 336 33
a 236 335 11
a 237 338 36
a 237 337 47
a 237 336 18
a 238 339 54
a 238 338 92
a 238 337 38
a 239 340 29
a 239 339 74
a 239 338 44
a 240 341 11
a 240 340 92
a 240 339 26
a 241 342 37
a 241 341 18
a 241 340 19
a 242 343 91
a 242 342 56
a 242 341 64
a 243 344 5
a 243 343 31
a 243 342 59
a 244 345 34
a 244 344 62
a 244 343 72
a 245 346 74
a 245 345 90
a 245 344 86
a 246 347 6
a 246 346 52
a 246 345 5
a 247 348 4
a 247 347 69
a 247 346 51
a 248 349 96
a 248 348 7
a 248 347 86
a 249 350 21
a 249 349 50
a 249 348 40
a 250 351 64
a 250 350 27
a 250 349 68
a 251 352 82
a 251 351 97
a 251 350 78
a 252 353 37
a 252 352 61
a 252 351 66
a 253 354 19
a 253 353 71
a 253 352 56
a 254 355 33
a 254 354 43
a 254 353 12
a 255 356 22
a 255 355 80
a 255 354 97
a 256 357 73
a 256 356 85
a 256 355 71
a 257 358 41
a 257 357 35
a 257 356 28
a 258 359 99
a 258 358 73
a 258 357 84
a 259 360 48
a 259 359 64
a 259 358 31
a 260 361 74
a 260 360 31
a 260 359 51
a 261 362 23
a 261 361 60
a 261 360 15
a 262 363 83
a 262 362 25
a 262 361 48
a 263 364 5
a 263 363 33
a 263 362 36
a 264 365 99
a 264 364 44
a 264 363 55
a 265 366 79
a 265 365 41
a 265 364 87
a 266 367 63
a 266 366 63
a 266 365 60
a 267 368 49
a 267 367 42
a 267 366 84
a 268 369 73
a 268 368 25
a 268 367 24
a 269 370 36
a 269 369 55
a 269 368 23
a 270 371 66
a 270 370 58
a 270 369 22
a 271 372 77
a 271 371 72
a 271 370 48
a 272 373 2
a 272 372 19
a 272 371 70
a 273 374 34
a 273 373 54
a 273 372 4
a 274 375 29
a 274 374 60
a 274 373 8
a 275 376 21
a 275 375 98
a 275 374 7
a 276 377 35
a 276 376 9
a 276 375 85
a 277 378 77
a 277 377 92
a 277 376 99
a 278 379 53
a 278 378 16
a 278 377 99
a 279 380 60
a 279 379 90
a 279 378 72
a 280 381 17
a 280 380 11
a 280 379 7
a 281 382 40
a 281 381 10
a 281 380 25
a 282 383 10
a 282 382 79
a 282 381 1
a 283 384 15
a 283 383 82
a 283 382 54
a 284 385 27
a 284 384 90
a 284 383 39
a 285 386 24
a 285 385 48
a 285 384 68
a 286 387 33
a 286 386 32
a 286 385 88
a 287 388 76
a 287 387 82
a 287 386 23
a 288 389 91
a 288 388 80
a 288 387 51
a 289 390 32
a 289 389 51
a 289 388 55
a 290 391 95
a 290 390 58
a 290 389 14
a 291 392 4
a 291 391 82
a 291 390 82
a 292 393 83
a 292 392 34
a 292 391 21
a 293 394 16
a 293 393 88
a 293 392 82
a 294 395 5
a 294 394 26
a 294 393 97
a 295 396 52
a 295 395 93
a 295 394 23
a 296 397 35
a 296 396 33
a 296 395 98
a 297 398 16
a 297 397 7
a 297 396 82
a 298 399 96
a 298 398 9
a 298 397 58
a 299 400 98
a 299 399 63
a 299 398 100
a 300 401 55
a 300 400 77
a 300 399 84
a 301 302 88
a 301 401 10
a 301 400 78
a 302 403 22
a 302 402 83
a 302 501 33
a 303 404 61
a 303 403 64
a 303 402 67
a 304 405 86
a 304 404 12
a 304 403 83
a 305 406 31
a 305 405 86
a 305 404 87
a 306 407 15
a 306 406 84
a 306 405 91
a 307 408 21
a 307 407 17
a 307 406 77
a 308 409 29
a 308 408 26
a 308 407 93
a 309 410 91
a 309 409 26
a 309 408 40
a 310 411 19
a 310 410 61
a 310 409 37
a 311 412 29
a 311 411 38
a 311 410 44
a 312 413 11
a 312 412 22
a 312 411 83
a 313 414 26
a 313 413 89
a 313 412 56
a 314 415 38
a 314 414 71
a 314 413 16
a 315 416 23
a 315 415 9
a 315 414 54
a 316 417 58
a 316 416 51
a 316 415 84
a 317 418 27
a 317 417 28
a 317 416 98
a 318 419 52
a 318 418 72
a 318 417 70
a 319 420 29
a 319 419 11
a 319 418 50
a 320 421 89
a 320 420 99
a 320 419 40
a 321 422 78
a 321 421 94
a 321 420 11
a 322 423 100
a 322 422 77
a 322 421 91
a 323 424 88
a 323 423 32
a 323 422 53
a 324 425 58
a 324 424 100
a 324 423 78
a 325 426 18
a 325 425 53
a 325 424 67
a 326 427 69
a 326 426 36
a 326 425 42
a 327 428 96
a 327 427 85
a 327 426 99
a 328 429 67
a 328 428 6
a 328 427 77
a 329 430 29
a 329 429 55
a 329 428 29
a 330 431 79
a 330 430 94
a 330 429 9
a 331 432 73
a 331 431 56
a 331 430 98
a 332 433 1
a 332 432 46
a 332 431 75
a 333 434 84
a 333 433 98
a 333 432 26
a 334 435 83
a 334 434 28
a 334 433 13
a 335 436 35
a 335 435 94
a 335 434 22
a 336 437 22
a 336 436 35
a 336 435 40
a 337 438 58
a 337 437 86
a 337 436 60
a 338 439 63
a 338 438 62
a 338 437 55
a 339 440 17
a 339 439 42
a 339 438 73
a 340 441 63
a 340 440 51
a 340 439 53
a 341 442 18
a 341 441 100
a 341 440 83
a 342 443 16
a 342 442 74
a 342 441 55
a 343 444 65
a 343 443 52
a 343 442 7
a 344 445 92
a 344 444 64
a 344 443 91
a 345 446 38
a 345 445 38
a 345 444 73
a 346 447 72
a 346 446 29
a 346 445 60
a 347 448 57
a 347 447 88
a 347 446 81
a 348 449 71
a 348 448 42
a 348 447 91
a 349 450 12
a 349 449 66
a 349 448 53
a 350 451 62
a 350 450 18
a 350 449 70
a 351 452 13
a 351 451 52
a 351 450 84
a 352 453 39
a 352 452 7
a 352 451 1
a 353 454 90
a 353 453 65
a 353 452 68
a 354 455 5
a 354 454 55
a 354 453 33
a 355 456 42
a 355 455 80
a 355 454 76
a 356 457 70
a 356 456 39
a 356 455 13
a 357 458 57
a 357 457 71
a 357 456 37
a 358 459 50
a 358 458 61
a 358 457 45
a 359 460 15
a 359 459 66
a 359 458 15
a 360 461 84
a 360 460 87
a 360 459 27
a 361 462 36
a 361 461 70
a 361 460 40
a 362 463 94
a 362 462 22
a 362 461 53
a 363 464 10
a 363 463 90
a 363 462 91
a 364 465 65
a 364 464 74
a 364 463 32
a 365 466 96
a 365 465 49
a 365 464 36
a 366 467 34
a 366 466 14
a 366 465 78
a 367 468 56
a 367 467 50
a 367 466 99
a 368 469 69
a 368 468 94
a 368 467 56
a 369 470 34
a 369 469 61
a 369 468 57
a 370 471 72
a 370 470 87
a 370 469 24
a 371 472 41
a 371 471 78
a 371 470 59
a 372 473 62
a 372 472 82
a 372 471 46
a 373 474 51
a 373 473 24
a 373 472 91
a 374 475 76
a 374 474 55
a 374 473 1
a 375 476 25
a 375 475 43
a 375 474 65
a 376 477 90
a 376 476 20
a 376 475 60
a 377 478 39
a 377 477 70
a 377 476 45
a 378 479 84
a 378 478 77
a 378 477 52
a 379 480 44
a 379 479 34
a 379 478 20
a 380 481 82
a 380 480 57
a 380 479 5
a 381 482 12
a 381 481 67
a 381 480 76
a 382 483 93
a 382 482 13
a 382 481 68
a 383 484 69
a 383 483 3
a 383 482 30
a 384 485 75
a 384 484 3
a 384 483 32
a 385 486 17
a 385 485 19
a 385 484 8
a 386 487 88
a 386 486 78
a 386 485 84
a 387 488 58
a 387 487 74
a 387 486 73
a 388 489 34
a 388 488 26
a 388 487 63
a 389 490 19
a 389 489 97
a 389 488 98
a 390 491 27
a 390 490 54
a 390 489 42
a 391 492 94
a 391 491 81
a 391 490 75
a 392 493 6
a 392 492 49
a 392 491 86
a 393 494 60
a 393 493 30
a 393 492 31
a 394 495 63
a 394 494 61
a 394 493 99
a 395 496 81
a 395 495 20
a 395 494 25
a 396 497 11
a 396 496 3
a 396 495 42
a 397 498 84
a 397 497 27
a 397 496 81
a 398 499 9
a 398 498 41
a 398 497 90
a 399 500 58
a 399 499 39
a 399 498 24
a 400 501 11
a 400 500 32
a 400 499 94
a 401 402 91
a 401 501 6
a 401 500 21
a 402 503 39
a 402 502 92
a 402 601 14
a 403 504 68
a 403 503 22
a 403 502 71
a 404 505 81
a 404 504 72
a 404 503 30
a 405 506 100
a 405 505 96
a 405 504 44
a 406 507 55
a 406 506 89
a 406 505 25
a 407 508 33
a 407 507 70
a 407 506 87
a 408 509 74
a 408 508 11
a 408 507 70
a 409 510 64
a 409 509 34
a 409 508 31
a 410 511 95
a 410 510 80
a 410 509 88
a 411 512 52
a 411 511 100
a 411 510 50
a 412 513 43
a 412 512 65
a 412 511 40
a 413 514 16
a 413 513 87
a 413 512 31
a 414 515 87
a 414 514 16
a 414 513 50
a 415 516 35
a 415 515 12
a 415 514 82
a 416 517 23
a 416 516 88
a 416 515 34
a 417 518 44
a 417 517 74
a 417 516 88
a 418 519 55
a 418 518 43
a 418 517 20
a 419 520 40
a 419 519 25
a 419 518 45
a 420 521 19
a 420 520 64
a 420 519 60
a 421 522 70
a 421 521 13
a 421 520 54
a 422 523 34
a 422 522 5
a 422 521 6
a 423 524 20
a 423 523 35
a 423 522 100
a 424 525 88
a 424 524 36
a 424 523 16
a 425 526 51
a 425 525 70
a 425 524 54
a 426 527 38
a 426 526 3
a 426 525 88
a 427 528 11
a 427 527 90
a 427 526 63
a 428 529 5
a 428 528 61
a 428 527 6
a 429 530 30
a 429 529 58
a 429 528 12
a 430 531 93
a 430 530 17
a 430 529 4
a 431 532 6
a 431 531 23
a 431 530 22
a 432 533 62
a 432 532 80
a 432 531 44
a 433 534 48
a 433 533 79
a 433 532 29
a 434 535 83
a 434 534 46
a 434 533 1
a 435 536 52
a 435 535 100
a 435 534 88
a 436 537 54
a 436 536 87
a 436 535 90
a 437 538 95
a 437 537 49
a 437 536 27
a 438 539 8
a 438 538 7
a 438 537 37
a 439 540 65
a 439 539 18
a 439 538 93
a 440 541 81
a 440 540 21
a 440 539 22
a 441 542 55
a 441 541 95
a 441 540 67
a 442 543 34
a 442 542 38
a 442 541 24
a 443 544 13
a 443 543 18
a 443 542 85
a 444 545 10
a 444 544 18
a 444 543 32
a 445 546 9
a 445 545 57
a 445 544 66
a 446 547 96
a 446 546 46
a 446 545 70
a 447 548 96
a 447 547 72
a 447 546 23
a 448 549 2
a 448 548 60
a 448 547 70
a 449 550 72
a 449 549 53
a 449 548 77
a 450 551 44
a 450 550 26
a 450 549 41
a 451 552 90
a 451 551 92
a 451 550 73
a 452 553 79
a 452 552 67
a 452 551 28
a 453 554 97
a 453 553 51
a 453 552 13
a 454 555 14
a 454 554 34
a 454 553 25
a 455 556 71
a 455 555 100
a 455 554 87
a 456 557 16
a 456 556 69
a 456 555 95
a 457 558 40
a 457 557 43
a 457 556 42
a 458 559 99
a 458 558 64
a 458 557 38
a 459 560 3
a 459 559 40
a 459 558 91
a 460 561 29
a 460 560 32
a 460 559 14
a 461 562 72
a 461 561 5
a 461 560 58
a 462 563 39
a 462 562 84
a 462 561 47
a 463 564 41
a 463 563 96
a 463 562 26
a 464 565 27
a 464 564 73
a 464 563 22
a 465 566 26
a 465 565 59
a 465 564 35
a 466 567 46
a 466 566 53
a 466 565 57
a 467 568 40
a 467 567 47
a 467 566 73
a 468 569 4
a 468 568 84
a 468 567 12
a 469 570 43
a 469 569 26
a 469 568 62
a 470 571 75
a 470 570 40
a 470 569 17
a 471 572 31
a 471 571 97
a 471 570 45
a 472 573 14
a 472 572 95
a 472 571 68
a 473 574 61
a 473 573 20
a 473 572 58
a 474 575 33
a 474 574 93
a 474 573 51
a 475 576 91
a 475 575 80
a 475 574 77
a 476 577 96
a 476 576 36
a 476 575 54
a 477 578 42
a 477 577 8
a 477 576 99
a 478 579 77
a 478 578 71
a 478 577 38
a 479 580 2
a 479 579 85
a 479 578 41
a 480 581 93
a 480 580 1
a 480 579 84
a 481 582 41
a 481 581 97
a 481 580 10
a 482 583 36
a 482 582 64
a 482 581 40
a 483 584 7
a 483 583 74
a 483 582 5
a 484 585 52
a 484 584 24
a 484 583 65
a 485 586 31
a 485 585 52
a 485 584 50
a 486 587 66
a 486 586 5
a 486 585 40
a 487 588 26
a 487 587 3
a 487 586 87
a 488 589 48
a 488 588 92
a 488 587 80
a 489 590 32
a 489 589 85
a 489 588 8
a 490 591 32
a 490 590 20
a 490 589 62
a 491 592 28
a 491 591 29
a 491 590 54
a 492 593 44
a 492 592 20
a 492 591 95
a 493 594 69
a 493 593 24
a 493 592 82
a 494 595 44
a 494 594 40
a 494 593 88
a 495 596 95
a 495 595 89
a 495 594 39
a 496 597 99
a 496 596 81
a 496 595 21
a 497 598 53
a 497 597 19
a 497 596 87
a 498 599 96
a 498 598 99
a 498 597 64
a 499 600 80
a 499 599 6
a 499 598 11
a 500 601 99
a 500 600 67
a 500 599 43
a 501 502 79
a 501 601 73
a 501 600 26
a 502 603 98
a 502 602 67
a 502 701 54
a 503 604 73
a 503 603 48
a 503 602 49
a 504 605 13
a 504 604 87
a 504 603 17
a 505 606 1
a 505 605 78
a 505 604 60
a 506 607 33
a 506 606 98
a 506 605 54
a 507 608 52
a 507 607 36
a 507 606 4
a 508 609 50
a 508 608 99
a 508 607 8
a 509 610 7
a 509 609 62
a 509 608 55
a 510 611 26
a 510 610 4
a 510 609 35
a 511 612 98
a 511 611 29
a 511 610 85
a 512 613 16
a 512 612 34
a 512 611 64
a 513 614 15
a 513 613 82
a 513 612 61
a 514 615 1
a 514 614 98
a 514 613 86
a 515 616 30
a 515 615 9
a 515 614 98
a 516 617 80
a 516 616 14
a 516 615 50
a 517 618 15
a 517 617 17
a 517 616 35
a 518 619 66
a 518 618 76
a 518 617 86
a 519 620 27
a 519 619 31
a 519 618 87
a 520 621 30
a 520 620 17
a 520 619 93
a 521 622 10
a 521 621 53
a 521 620 70
a 522 623 96
a 522 622 16
a 522 621 67
a 523 624 77
a 523 623 29
a 523 622 34
a 524 625 27
a 524 624 14
a 524 623 48
a 525 626 87
a 525 625 63
a 525 624 1
a 526 627 1
a 526 626 64
a 526 625 30
a 527 628 17
a 527 627 98
a 527 626 9
a 528 629 45
a 528 628 83
a 528 627 76
a 529 630 27
a 529 629 21
a 529 628 41
a 530 631 95
a 530 630 66
a 530 629 19
a 531 632 47
a 531 631 35
a 531 630 100
a 532 633 63
a 532 632 54
a 532 631 9
a 533 634 43
a 533 633 87
a 533 632 4
a 534 635 8
a 534 634 35
a 534 633 33
a 535 636 70
a 535 635 35
a 535 634 11
a 536 637 85
a 536 636 16
a 536 635 97
a 537 638 83
a 537 637 25
a 537 636 97
a 538 639 17
a 538 638 52
a 538 637 66
a 539 640 38
a 539 639 44
a 539 638 62
a 540 641 3
a 540 640 62
a 540 639 88
a 541 642 89
a 541 641 61
a 541 640 82
a 542 643 42
a 542 642 21
a 542 641 80
a 543 644 29
a 543 643 25
a 543 642 94
a 544 645 63
a 544 644 9
a 544 643 36
a 545 646 97
a 545 645 71
a 545 644 43
a 546 647 12
a 546 646 67
a 546 645 64
a 547 648 88
a 547 647 16
a 547 646 1
a 548 649 91
a 548 648 33
a 548 647 35
a 549 650 34
a 549 649 94
a 549 648 51
a 550 651 95
a 550 650 81
a 550 649 40
a 551 652 55
a 551 651 14
a 551 650 94
a 552 653 76
a 552 652 45
a 552 651 83
a 553 654 52
a 553 653 39
a 553 652 24
a 554 655 12
a 554 654 74
a 554 653 52
a 555 656 82
a 555 655 69
a 555 654 66
a 556 657 100
a 556 656 84
a 556 655 14
a 557 658 15
a 557 657 36
a 557 656 78
a 558 659 47
a 558 658 70
a 558 657 65
a 559 660 92
a 559 659 73
a 559 658 8
a 560 661 24
a 560 660 12
a 560 659 41
a 561 662 37
a 561 661 58
a 561 660 88
a 562 663 82
a 562 662 40
a 562 661 94
a 563 664 72
a 563 663 15
a 563 662 21
a 564 665 97
a 564 664 19
a 564 663 72
a 565 666 65
a 565 665 84
a 565 664 35
a 566 667 1
a 566 666 98
a 566 665 68
a 567 668 36
a 567 667 75
a 567 666 68
a 568 669 58
a 568 668 91
a 568 667 34
a 569 670 30
a 569 669 50
a 569 668 33
a 570 671 93
a 570 670 91
a 570 669 24
a 571 672 50
a 571 671 30
a 571 670 48
a 572 673 41
a 572 672 23
a 572 671 36
a 573 674 56
a 573 673 44
a 573 672 69
a 574 675 26
a 574 674 67
a 574 673 40
a 575 676 61
a 575 675 54
a 575 674 37
a 576 677 58
a 576 676 21
a 576 675 53
a 577 678 84
a 577 677 88
a 577 676 5
a 578 679 27
a 578 678 22
a 578 677 41
a 579 680 28
a 579 679 6
a 579 678 98
a 580 681 70
a 580 680 29
a 580 679 79
a 581 682 99
a 581 681 28
a 581 680 71
a 582 683 22
a 582 682 64
a 582 681 21
a 583 684 17
a 583 683 84
a 583 682 61
a 584 685 83
a 584 684 24
a 584 683 68
a 585 686 36
a 585 685 12
a 585 684 93
a 586 687 9
a 586 686 64
a 586 685 54
a 587 688 96
a 587 687 69
a 587 686 63
a 588 689 69
a 588 688 61
a 588 687 99
a 589 690 74
a 589 689 10
a 589 688 77
a 590 691 55
a 590 690 88
a 590 689 4
a 591 692 82
a 591 691 58
a 591 690 74
a 592 693 97
a 592 692 30
a 592 691 24
a 593 694 81
a 593 693 43
a 593 692 45
a 594 695 56
a 594 694 10
a 594 693 13
a 595 696 67
a 595 695 55
a 595 694 48
a 596 697 82
a 596 696 60
a 596 695 35
a 597 698 2
a 597 697 74
a 597 696 43
a 598 699 14
a 598 698 72
a 598 697 39
a 599 700 23
a 599 699 100
a 599 698 59
a 600 701 62
a 600 700 56
a 600 699 85
a 601 602 72
a 601 701 81
a 601 700 91
a 602 703 1
a 602 702 4
a 602 801 24
a 603 704 43
a 603 703 1
a 603 702 21
a 604 705 5
a 604 704 13
a 604 703 53
a 605 706 59
a 605 705 60
a 605 704 8
a 606 707 18
a 606 706 95
a 606 705 26
a 607 708 91
a 607 707 37
a 607 706 59
a 608 709 15
a 608 708 27
a 608 707 61
a 609 710 66
a 609 709 38
a 609 708 74
a 610 711 21
a 610 710 22
a 610 709 49
a 611 712 1
a 611 711 64
a 611 710 10
a 612 713 5
a 612 712 87
a 612 711 33
a 613 714 57
a 613 713 59
a 613 712 34
a 614 715 69
a 614 714 11
a 614 713 28
a 615 716 29
a 615 715 70
a 615 714 32
a 616 717 75
a 616 716 47
a 616 715 42
a 617 718 11
a 617 717 6
a 617 716 59
a 618 719 90
a 618 718 66
a 618 717 2
a 619 720 27
a 619 719 91
a 619 718 68
a 620 721 100
a 620 720 39
a 620 719 33
a 621 722 63
a 621 721 1
a 621 720 6
a 622 723 49
a 622 722 33
a 622 721 58
a 623 724 8
a 623 723 18
a 623 722 62
a 624 725 70
a 624 724 98
a 624 723 70
a 625 726 40
a 625 725 29
a 625 724 39
a 626 727 86
a 626 726 71
a 626 725 19
a 627 728 43
a 627 727 81
a 627 726 93
a 628 729 8
a 628 728 34
a 628 727 55
a 629 730 51
a 629 729 1
a 629 728 44
a 630 731 89
a 630 730 86
a 630 729 22
a 631 732 41
a 631 731 91
a 631 730 21
a 632 733 26
a 632 732 48
a 632 731 35
a 633 734 95
a 633 733 62
a 633 732 84
a 634 735 92
a 634 734 31
a 634 733 43
a 635 736 21
a 635 735 21
a 635 734 64
a 636 737 43
a 636 736 39
a 636 735 55
a 637 738 23
a 637 737 31
a 637 736 93
a 638 739 9
a 638 738 86
a 638 737 35
a 639 740 9
a 639 739 81
a 639 738 95
a 640 741 46
a 640 740 3
a 640 739 45
a 641 742 88
a 641 741 23
a 641 740 85
a 642 743 36
a 642 742 58
a 642 741 26
a 643 744 49
a 643 743 93
a 643 742 3
a 644 745 31
a 644 744 87
a 644 743 97
a 645 746 52
a 645 745 50
a 645 744 41
a 646 747 90
a 646 746 57
a 646 745 13
a 647 748 73
a 647 747 49
a 647 746 55
a 648 749 58
a 648 748 83
a 648 747 29
a 649 750 38
a 649 749 77
a 649 748 89
a 650 751 40
a 650 750 21
a 650 749 98
a 651 752 15
a 651 751 6
a 651 750 95
a 652 753 24
a 652 752 83
a 652 751 83
a 653 754 16
a 653 753 37
a 653 752 70
a 654 755 54
a 654 754 85
a 654 753 18
a 655 756 55
a 655 755 25
a 655 754 100
a 656 757 11
a 656 756 37
a 656 755 51
a 657 758 59
a 657 757 43
a 657 756 93
a 658 759 42
a 658 758 24
a 658 757 65
a 659 760 70
a 659 759 12
a 659 758 22
a 660 761 91
a 660 760 61
a 660 759 11
a 661 762 48
a 661 761 56
a 661 760 3
a 662 763 82
a 662 762 90
a 662 761 17
a 663 764 18
a 663 763 59
a 663 762 40
a 664 765 2
a 664 764 76
a 664 763 7
a 665 766 79
a 665 765 75
a 665 764 12
a 666 767 67
a 666 766 78
a 666 765 66
a 667 768 62
a 667 767 70
a 667 766 77
a 668 769 37
a 668 768 34
a 668 767 35
a 669 770 100
a 669 769 7
a 669 768 28
a 670 771 61
a 670 770 17
a 670 769 98
a 671 772 68
a 671 771 71
a 671 770 40
a 672 773 9
a 672 772 87
a 672 771 87
a 673 774 67
a 673 773 78
a 673 772 68
a 674 775 94
a 674 774 36
a 674 773 37
a 675 776 20
a 675 775 47
a 675 774 38
a 676 777 97
a 676 776 13
a 676 775 68
a 677 778 18
a 677 777 41
a 677 776 35
a 678 779 51
a 678 778 75
a 678 777 96
a 679 780 9
a 679 779 3
a 679 778 32
a 680 781 26
a 680 780 52
a 680 779 31
a 681 782 48
a 681 781 91
a 681 780 43
a 682 783 35
a 682 782 77
a 682 781 62
a 683 784 64
a 683 783 96
a 683 782 70
a 684 785 52
a 684 784 32
a 684 783 36
a 685 786 98
a 685 785 21
a 685 784 81
a 686 787 62
a 686 786 89
a 686 785 1
a 687 788 2
a 687 787 75
a 687 786 97
a 688 789 29
a 688 788 70
a 688 787 15
a 689 790 83
a 689 789 53
a 689 788 17
a 690 791 34
a 690 790 83
a 690 789 26
a 691 792 24
a 691 791 78
a 691 790 3
a 692 793 52
a 692 792 91
a 692 791 50
a 693 794 47
a 693 793 61
a 693 792 36
a 694 795 30
a 694 794 48
a 694 793 100
a 695 796 50
a 695 795 29
a 695 794 3
a 696 797 90
a 696 796 29
a 696 795 100
a 697 798 64
a 697 797 77
a 697 796 14
a 698 799 85
a 698 798 91
a 698 797 67
a 699 800 37
a 699 799 60
a 699 798 95
a 700 801 72
a 700 800 85
a 700 799 77
a 701 702 1
a 701 801 39
a 701 800 10
a 702 803 91
a 702 802 40
a 702 901 85
a 703 804 51
a 703 803 76
a 703 802 36
a 704 805 51
a 704 804 27
a 704 803 82
a 705 806 79
a 705 805 29
a 705 804 63
a 706 807 59
a 706 806 80
a 706 805 65
a 707 808 35
a 707 807 45
a 707 806 54
a 708 809 78
a 708 808 12
a 708 807 70
a 709 810 37
a 709 809 58
a 709 808 6
a 710 811 73
a 710 810 35
a 710 809 43
a 711 812 11
a 711 811 96
a 711 810 66
a 712 813 50
a 712 812 33
a 712 811 66
a 713 814 77
a 713 813 68
a 713 812 8
a 714 815 3
a 714 814 2
a 714 813 59
a 715 816 83
a 715 815 64
a 715 814 61
a 716 817 15
a 716 816 28
a 716 815 39
a 717 818 59
a 717 817 34
a 717 816 97
a 718 819 70
a 718 818 55
a 718 817 31
a 719 820 28
a 719 819 60
a 719 818 8
a 720 821 14
a 720 820 2
a 720 819 96
a 721 822 61
a 721 821 19
a 721 820 68
a 722 823 93
a 722 822 36
a 722 821 30
a 723 824 13
a 723 823 44
a 723 822 32
a 724 825 14
a 724 824 54
a 724 823 8
a 725 826 29
a 725 825 14
a 725 824 63
a 726 827 57
a 726 826 52
a 726 825 97
a 727 828 42
a 727 827 100
a 727 826 11
a 728 829 96
a 728 828 82
a 728 827 70
a 729 830 55
a 729 829 90
a 729 828 91
a 730 831 9
a 730 830 37
a 730 829 70
a 731 832 27
a 731 831 5
a 731 830 83
a 732 833 15
a 732 832 34
a 732 831 96
a 733 834 58
a 733 833 65
a 733 832 88
a 734 835 11
a 734 834 25
a 734 833 52
a 735 836 24
a 735 835 39
a 735 834 65
a 736 837 27
a 736 836 35
a 736 835 94
a 737 838 26
a 737 837 46
a 737 836 2
a 738 839 7
a 738 838 67
a 738 837 95
a 739 840 48
a 739 839 57
a 739 838 90
a 740 841 85
a 740 840 27
a 740 839 96
a 741 842 41
a 741 841 61
a 741 840 4
a 742 843 74
a 742 842 56
a 742 841 83
a 743 844 91
a 743 843 96
a 743 842 49
a 744 845 67
a 744 844 47
a 744 843 6
a 745 846 5
a 745 845 64
a 745 844 68
a 746 847 91
a 746 846 9
a 746 845 91
a 747 848 36
a 747 847 62
a 747 846 69
a 748 849 2
a 748 848 56
a 748 847 94
a 749 850 11
a 749 849 45
a 749 848 52
a 750 851 89
a 750 850 92
a 750 849 52
a 751 852 49
a 751 851 48
a 751 850 36
a 752 853 57
a 752 852 82
a 752 851 76
a 753 854 52
a 753 853 30
a 753 852 1
a 754 855 50
a 754 854 35
a 754 853 43
a 755 856 65
a 755 855 2
a 755 854 61
a 756 857 73
a 756 856 44
a 756 855 65
a 757 858 34
a 757 857 12
a 757 856 56
a 758 859 41
a 758 858 57
a 758 857 43
a 759 860 37
a 759 859 60
a 759 858 97
a 760 861 29
a 760 860 11
a 760 859 59
a 761 862 76
a 761 861 98
a 761 860 47
a 762 863 57
a 762 862 25
a 762 861 95
a 763 864 86
a 763 863 26
a 763 862 51
a 764 865 72
a 764 864 20
a 764 863 54
a 765 866 25
a 765 865 81
a 765 864 56
a 766 867 68
a 766 866 97
a 766 865 20
a 767 868 31
a 767 867 4
a 767 866 45
a 768 869 87
a 768 868 47
a 768 867 30
a 769 870 46
a 769 869 95
a 769 868 71
a 770 871 9
a 770 870 53
a 770 869 59
a 771 872 6
a 771 871 99
a 771 870 87
a 772 873 31
a 772 872 45
a 772 871 14
a 773 874 8
a 773 873 48
a 773 872 22
a 774 875 79
a 774 874 1
a 774 873 59
a 775 876 59
a 775 875 8
a 775 874 30
a 776 877 8
a 776 876 80
a 776 875 54
a 777 878 11
a 777 877 76
a 777 876 73
a 778 879 9
a 778 878 5
a 778 877 3
a 779 880 3
a 779 879 27
a 779 878 41
a 780 881 7
a 780 880 86
a 780 879 87
a 781 882 5
a 781 881 24
a 781 880 47
a 782 883 2
a 782 882 38
a 782 881 52
a 783 884 49
a 783 883 11
a 783 882 34
a 784 885 1
a 784 884 70
a 784 883 93
a 785 886 9
a 785 885 51
a 785 884 72
a 786 887 88
a 786 886 57
a 786 885 82
a 787 888 63
a 787 887 29
a 787 886 89
a 788 889 19
a 788 888 84
a 788 887 52
a 789 890 46
a 789 889 24
a 789 888 60
a 790 891 83
a 790 890 62
a 790 889 15
a 791 892 58
a 791 891 8
a 791 890 73
a 792 893 95
a 792 892 12
a 792 891 30
a 793 894 58
a 793 893 45
a 793 892 31
a 794 895 27
a 794 894 38
a 794 893 79
a 795 896 29
a 795 895 61
a 795 894 79
a 796 897 85
a 796 896 42
a 796 895 87
a 797 898 66
a 797 897 83
a 797 896 26
a 798 899 49
a 798 898 34
a 798 897 40
a 799 900 24
a 799 899 45
a 799 898 59
a 800 901 86
a 800 900 11
a 800 899 56
a 801 802 45
a 801 901 84
a 801 900 90
a 802 903 56
a 802 902 13
a 802 1001 47
a 803 904 1
a 803 903 43
a 803 902 94
a 804 905 90
a 804 904 21
a 804 903 51
a 805 906 50
a 805 905 51
a 805 904 29
a 806 907 43
a 806 906 38
a 806 905 57
a 807 908 25
a 807 907 15
a 807 906 42
a 808 909 10
a 808 908 55
a 808 907 59
a 809 910 55
a 809 909 65
a 809 908 59
a 810 911 17
a 810 910 20
a 810 909 82
a 811 912 100
a 811 911 61
a 811 910 19
a 812 913 64
a 812 912 7
a 812 911 64
a 813 914 6
a 813 913 100
a 813 912 19
a 814 915 78
a 814 914 2
a 814 913 71
a 815 916 29
a 815 915 30
a 815 914 12
a 816 917 18
a 816 916 87
a 816 915 13
a 817 918 84
a 817 917 80
a 817 916 56
a 818 919 38
a 818 918 90
a 818 917 80
a 819 920 54
a 819 919 48
a 819 918 90
a 820 921 25
a 820 920 81
a 820 919 96
a 821 922 85
a 821 921 100
a 821 920 12
a 822 923 44
a 822 922 15
a 822 921 12
a 823 924 43
a 823 923 85
a 823 922 27
a 824 925 97
a 824 924 8
a 824 923 33
a 825 926 26
a 825 925 19
a 825 924 62
a 826 927 64
a 826 926 32
a 826 925 42
a 827 928 95
a 827 927 87
a 827 926 11
a 828 929 36
a 828 928 18
a 828 927 95
a 829 930 83
a 829 929 59
a 829 928 84
a 830 931 16
a 830 930 54
a 830 929 38
a 831 932 15
a 831 931 18
a 831 930 14
a 832 933 81
a 832 932 81
a 832 931 99
a 833 934 65
a 833 933 7
a 833 932 42
a 834 935 24
a 834 934 39
a 834 933 36
a 835 936 43
a 835 935 53
a 835 934 32
a 836 937 26
a 836 936 46
a 836 935 10
a 837 938 64
a 837 937 57
a 837 936 25
a 838 939 81
a 838 938 3
a 838 937 72
a 839 940 92
a 839 939 86
a 839 938 7
a 840 941 45
a 840 940 75
a 840 939 90
a 841 942 62
a 841 941 89
a 841 940 57
a 842 943 42
a 842 942 39
a 842 941 71
a 843 944 49
a 843 943 80
a 843 942 3
a 844 945 39
a 844 944 67
a 844 943 19
a 845 946 43
a 845 945 51
a 845 944 43
a 846 947 89
a 846 946 60
a 846 945 85
a 847 948 97
a 847 947 36
a 847 946 62
a 848 949 99
a 848 948 7
a 848 947 25
a 849 950 36
a 849 949 14
a 849 948 57
a 850 951 63
a 850 950 55
a 850 949 48
a 851 952 3
a 851 951 11
a 851 950 45
a 852 953 41
a 852 952 33
a 852 951 58
a 853 954 72
a 853 953 87
a 853 952 52
a 854 955 90
a 854 954 5
a 854 953 100
a 855 956 40
a 855 955 47
a 855 954 90
a 856 957 51
a 856 956 83
a 856 955 85
a 857 958 87
a 857 957 44
a 857 956 73
a 858 959 93
a 858 958 20
a 858 957 69
a 859 960 58
a 859 959 77
a 859 958 19
a 860 961 64
a 860 960 76
a 860 959 54
a 861 962 26
a 861 961 20
a 861 960 16
a 862 963 10
a 862 962 78
a 862 961 70
a 863 964 96
a 863 963 81
a 863 962 10
a 864 965 1
a 864 964 32
a 864 963 33
a 865 966 47
a 865 965 21
a 865 964 23
a 866 967 30
a 866 966 57
a 866 965 14
a 867 968 25
a 867 967 29
a 867 966 65
a 868 969 45
a 868 968 49
a 868 967 51
a 869 970 73
a 869 969 19
a 869 968 95
a 870 971 48
a 870 970 73
a 870 969 5
a 871 972 20
a 871 971 40
a 871 970 68
a 872 973 49
a 872 972 10
a 872 971 94
a 873 974 29
a 873 973 71
a 873 972 55
a 874 975 60
a 874 974 56
a 874 973 51
a 875 976 32
a 875 975 30
a 875 974 51
a 876 977 89
a 876 976 43
a 876 975 49
a 877 978 69
a 877 977 7
a 877 976 78
a 878 979 70
a 878 978 9
a 878 977 55
a 879 980 88
a 879 979 4
a 879 978 99
a 880 981 12
a 880 980 8
a 880 979 71
a 881 982 4
a 881 981 27
a 881 980 70
a 882 983 65
a 882 982 72
a 882 981 41
a 883 984 87
a 883 983 27
a 883 982 89
a 884 985 42
a 884 984 77
a 884 983 17
a 885 986 23
a 885 985 79
a 885 984 28
a 886 987 66
a 886 986 27
a 886 985 60
a 887 988 24
a 887 987 5
a 887 986 100
a 888 989 33
a 888 988 59
a 888 987 68
a 889 990 88
a 889 989 9
a 889 988 89
a 890 991 95
a 890 990 31
a 890 989 77
a 891 992 73
a 891 991 52
a 891 990 40
a 892 993 45
a 892 992 93
a 892 991 43
a 893 994 23
a 893 993 81
a 893 992 7
a 894 995 99
a 894 994 50
a 894 993 94
a 895 996 77
a 895 995 29
a 895 994 87
a 896 997 3
a 896 996 88
a 896 995 10
a 897 998 59
a 897 997 39
a 897 996 27
a 898 999 69
a 898 998 59
a 898 997 50
a 899 1000 29
a 899 999 47
a 899 998 82
a 900 1001 59
a 900 1000 75
a 900 999 21
a 901 902 63
a 901 1001 15
a 901 1000 15
a 902 1002 300
a 903 1002 300
a 904 1002 300
a 905 1002 300
a 906 1002 300
a 907 1002 300
a 908 1002 300
a 909 1002 300
a 910 1002 300
a 911 1002 300
a 912 1002 300
a 913 1002 300
a 914 1002 300
a 915 1002 300
a 916 1002 300
a 917 1002 300
a 918 1002 300
a 919 1002 300
a 920 1002 300
a 921 1002 300
a 922 1002 300
a 923 1002 300
a 924 1002 300
a 925 1002 300
a 926 1002 300
a 927 1002 300
a 928 1002 300
a 929 1002 300
a 930 1002 300
a 931 1002 300
a 932 1002 300
a 933 1002 300
a 934 1002 300
a 935 1002 300
a 936 1002 300
a 937 1002 300
a 938 1002 300
a 939 1002 300
a 940 1002 300
a 941 1002 300
a 942 1002 300
a 943 1002 300
a 944 1002 300
a 945 1002 300
a 946 1002 300
a 947 1002 300
a 948 1002 300
a 949 1002 300
a 950 1002 300
a 951 1002 300
a 952 1002 300
a 953 1002 300
a 954 1002 300
a 955 1002 300
a 956 1002 300
a 957 1002 300
a 958 1002 300
a 959 1002 300
a 960 1002 300
a 961 1002 300
a 962 1002 300
a 963 1002 300
a 964 1002 300
a 965 1002 300
a 966 1002 300
a 967 1002 300
a 968 1002 300
a 969 1002 300
a 970 1002 300
a 971 1002 300
a 972 1002 300
a 973 1002 300
a 974 1002 300
a 975 1002 300
a 976 1002 300
a 977 1002 300
a 978 1002 300
a 979 1002 300
a 980 1002 300
a 981 1002 300
a 982 1002 300
a 983 1002 300
a 984 1002 300
a 985 1002 300
a 986 1002 300
a 987 1002 300
a 988 1002 300
a 989 1002 300
a 990 1002 300
a 991 1002 300
a 992 1002 300
a 993 1002 300
a 994 1002 300
a 995 1002 300
a 996 1002 300
a 997 1002 300
a 998 1002 300
a 999 1002 300
a 1000 1002 300
a 1001 1002 300
